65 85 
89 86 
49 12 
86 96 
60 70 
16 89 
91 13 
53 39 
99 31 
80 17 
83 46 
57 25 
73 49 
30 2 
94 28 
39 11 
65 28 
97 14 
92 35 
62 4 
6 79 
45 49 
92 98 
89 43 
81 21 
60 65 
19 69 
90 92 
18 72 
46 64 
0 85 
76 17 
66 25 
32 10 
61 46 
15 19 
25 60 
68 69 
11 9 
12 92 
30 25 
9 1 
46 52 
45 17 
24 91 
81 77 
29 9 
94 47 
87 78 
57 48 
